p cnf 20 40
1 2 0
3 4 0
5 6 0
7 8 0
9 10 0
11 12 0
13 14 0
15 16 0
17 18 0
19 20 0
-1 -2 0
-3 -4 0
-5 -6 0
-7 -8 0
-9 -10 0
-11 -12 0
-13 -14 0
-15 -16 0
-17 -18 0
-19 -20 0
-1 -3 0
-2 -4 0
-3 -5 0
-4 -6 0
-5 -7 0
-6 -8 0
-7 -9 0
-8 -10 0
-9 -11 0
-10 -12 0
-11 -13 0
-12 -14 0
-13 -15 0
-14 -16 0
-15 -17 0
-16 -18 0
-17 -19 0
-18 -20 0
-19 -1 0
-20 -2 0
